400
50 50
1 40 957
2 40 287
3 40 159
4 40 6
5 40 287
6 40 505
7 40 247
8 40 619
9 39 554
10 39 235
11 39 776
12 39 283
13 39 731
14 39 5
15 39 466
16 39 229
17 39 135
18 39 503
19 39 576
20 39 802
21 39 156
22 38 664
23 38 614
24 38 388
25 38 814
26 38 344
27 38 669
28 38 122
29 38 450
30 37 399
31 37 485
32 37 995
33 37 877
34 37 257
35 37 847
36 37 547
37 37 982
38 37 683
39 37 920
40 37 691
41 37 744
42 37 615
43 37 544
44 37 767
45 37 175
46 36 330
47 36 268
48 36 971
49 36 808
50 36 833
51 36 970
52 36 520
53 36 184
54 36 568
55 36 19
56 36 42
57 36 87
58 36 568
59 36 980
60 36 231
61 36 802
62 36 834
63 36 433
64 36 94
65 36 511
66 35 409
67 35 994
68 35 78
69 35 723
70 35 310
71 35 346
72 35 105
73 35 694
74 34 798
75 34 570
76 34 242
77 34 692
78 34 951
79 34 4
80 34 732
81 34 543
82 33 913
83 33 178
84 33 27
85 33 372
86 33 626
87 33 321
88 33 87
89 33 651
90 33 603
91 33 156
92 33 994
93 33 178
94 33 535
95 33 501
96 33 524
97 33 817
98 32 195
99 32 77
100 32 812
101 32 391
102 32 445
103 32 735
104 32 374
105 31 803
106 31 913
107 31 445
108 31 938
109 31 554
110 31 472
111 31 803
112 31 466
113 31 140
114 31 494
115 31 843
116 31 998
117 31 359
118 31 10
119 31 40
120 31 535
121 30 830
122 30 891
123 30 664
124 30 199
125 30 819
126 30 80
127 30 458
128 29 133
129 29 989
130 29 944
131 29 830
132 29 613
133 29 85
134 29 189
135 29 115
136 29 660
137 29 782
138 29 567
139 29 238
140 29 368
141 29 568
142 29 901
143 29 11
144 28 678
145 28 750
146 28 949
147 28 102
148 28 293
149 28 840
150 28 505
151 28 181
152 28 130
153 28 392
154 28 915
155 28 661
156 28 770
157 27 860
158 27 624
159 27 636
160 27 839
161 27 176
162 27 433
163 27 869
164 27 868
165 27 723
166 27 523
167 27 80
168 27 797
169 27 188
170 27 263
171 27 41
172 27 724
173 27 512
174 27 212
175 26 753
176 26 606
177 26 793
178 26 584
179 26 298
180 26 304
181 26 176
182 26 525
183 26 950
184 26 671
185 26 976
186 26 388
187 26 701
188 26 150
189 26 695
190 26 636
191 25 670
192 25 687
193 25 148
194 25 174
195 25 396
196 25 329
197 25 0
198 25 488
199 25 884
200 25 667
201 25 225
202 24 456
203 24 102
204 24 28
205 24 138
206 24 91
207 24 518
208 24 207
209 24 786
210 23 914
211 23 190
212 23 581
213 23 875
214 23 655
215 23 188
216 23 344
217 23 672
218 23 476
219 23 965
220 23 267
221 22 254
222 22 478
223 22 141
224 22 202
225 22 261
226 22 555
227 22 841
228 22 368
229 22 383
230 22 375
231 22 820
232 22 463
233 22 588
234 22 674
235 21 892
236 21 515
237 21 37
238 21 146
239 21 536
240 21 933
241 21 937
242 21 585
243 21 138
244 21 81
245 21 922
246 21 211
247 21 292
248 21 654
249 21 544
250 21 472
251 21 188
252 21 362
253 20 529
254 20 27
255 20 941
256 20 645
257 20 501
258 20 544
259 20 155
260 20 213
261 20 882
262 20 322
263 20 587
264 19 277
265 19 49
266 19 90
267 19 611
268 19 455
269 19 24
270 19 586
271 19 94
272 19 822
273 19 688
274 19 883
275 19 247
276 19 459
277 19 23
278 19 915
279 19 519
280 19 393
281 18 545
282 18 598
283 18 739
284 18 701
285 18 123
286 18 14
287 17 896
288 17 735
289 17 4
290 17 585
291 17 833
292 17 80
293 17 280
294 17 256
295 17 899
296 17 942
297 17 377
298 17 688
299 17 192
300 17 964
301 17 729
302 16 933
303 16 982
304 16 648
305 16 6
306 16 880
307 16 889
308 16 349
309 16 878
310 16 423
311 16 694
312 16 996
313 16 909
314 16 888
315 15 68
316 15 842
317 15 723
318 15 198
319 15 295
320 15 544
321 15 994
322 15 540
323 15 553
324 15 492
325 15 937
326 15 131
327 15 487
328 15 346
329 15 862
330 15 130
331 14 501
332 14 497
333 14 822
334 14 189
335 14 168
336 14 634
337 14 2
338 14 3
339 14 55
340 14 257
341 14 424
342 14 811
343 14 200
344 13 355
345 13 653
346 13 348
347 13 513
348 13 709
349 13 126
350 13 176
351 13 133
352 13 609
353 13 767
354 13 686
355 12 359
356 12 171
357 12 587
358 12 887
359 12 22
360 12 759
361 12 598
362 12 504
363 12 583
364 12 154
365 12 417
366 12 66
367 11 267
368 11 573
369 11 404
370 11 915
371 11 189
372 11 881
373 11 614
374 11 472
375 11 831
376 11 23
377 11 4
378 11 32
379 11 615
380 11 603
381 10 889
382 10 211
383 10 925
384 10 451
385 10 106
386 10 359
387 10 888
388 10 209
389 10 235
390 10 553
391 10 373
392 10 91
393 10 875
394 10 110
395 10 845
396 10 707
397 10 933
398 10 969
399 10 233
400 10 587
